data/OOEBPP/R750/BPP_750_125_0.2_0.8_2.txt.ins
750
125 125
1 100 812
2 100 587
3 100 331
4 100 784
5 100 461
6 100 587
7 100 48
8 100 11
9 99 723
10 99 63
11 99 907
12 99 412
13 99 646
14 99 672
15 99 87
16 99 858
17 99 511
18 99 959
19 99 30
20 99 784
21 98 159
22 98 785
23 98 301
24 98 576
25 98 337
26 98 522
27 98 759
28 98 425
29 98 126
30 98 404
31 98 775
32 98 252
33 98 514
34 97 298
35 97 746
36 97 215
37 97 939
38 97 545
39 97 966
40 97 370
41 97 436
42 97 173
43 97 257
44 97 721
45 97 169
46 96 981
47 96 718
48 96 676
49 96 246
50 96 890
51 96 255
52 96 179
53 96 362
54 96 633
55 96 573
56 95 756
57 95 168
58 95 240
59 95 502
60 95 183
61 95 389
62 94 284
63 94 570
64 94 792
65 94 558
66 94 983
67 94 884
68 94 851
69 94 458
70 93 709
71 93 872
72 93 329
73 93 381
74 93 776
75 93 812
76 93 384
77 92 790
78 92 573
79 92 784
80 92 729
81 92 2
82 92 372
83 92 754
84 92 677
85 92 820
86 92 34
87 92 68
88 92 759
89 92 890
90 92 621
91 92 846
92 91 982
93 91 701
94 91 687
95 91 554
96 91 806
97 91 282
98 91 316
99 91 15
100 91 5
101 91 328
102 91 802
103 91 632
104 91 800
105 91 494
106 91 668
107 91 317
108 90 879
109 90 249
110 90 948
111 90 40
112 90 944
113 90 900
114 90 669
115 90 757
116 89 518
117 89 987
118 89 671
119 89 254
120 89 419
121 89 660
122 89 383
123 89 710
124 89 28
125 89 563
126 88 458
127 88 811
128 88 960
129 88 546
130 88 776
131 87 702
132 87 941
133 87 936
134 87 126
135 87 256
136 87 316
137 87 688
138 86 848
139 86 281
140 86 494
141 86 732
142 86 143
143 86 745
144 86 832
145 86 61
146 86 699
147 86 131
148 86 201
149 86 399
150 86 871
151 86 984
152 86 229
153 85 967
154 85 290
155 85 294
156 85 717
157 85 39
158 85 245
159 85 957
160 85 368
161 85 631
162 84 880
163 84 805
164 84 22
165 84 200
166 84 258
167 83 648
168 83 284
169 83 851
170 83 309
171 83 67
172 83 398
173 83 790
174 83 550
175 82 629
176 82 214
177 82 732
178 82 305
179 82 936
180 82 997
181 82 103
182 82 543
183 82 124
184 82 21
185 81 398
186 81 831
187 81 498
188 81 527
189 81 351
190 81 33
191 81 872
192 81 669
193 81 243
194 81 846
195 80 64
196 80 69
197 80 541
198 80 59
199 80 558
200 80 675
201 80 659
202 80 442
203 79 896
204 79 485
205 79 626
206 79 949
207 79 372
208 79 654
209 79 590
210 79 139
211 79 96
212 79 114
213 79 344
214 79 50
215 79 972
216 78 839
217 78 871
218 78 211
219 78 644
220 78 597
221 78 12
222 78 60
223 78 67
224 78 748
225 78 665
226 77 518
227 77 943
228 77 872
229 77 932
230 77 582
231 77 397
232 77 17
233 77 985
234 77 347
235 77 448
236 77 119
237 77 414
238 77 635
239 76 235
240 76 367
241 76 376
242 76 728
243 76 915
244 76 361
245 76 871
246 76 402
247 76 585
248 76 96
249 76 125
250 76 48
251 76 432
252 75 641
253 75 700
254 75 469
255 75 325
256 75 853
257 75 227
258 75 954
259 75 326
260 74 156
261 74 134
262 74 806
263 74 296
264 74 278
265 74 74
266 74 1000
267 74 851
268 74 392
269 74 119
270 74 253
271 73 14
272 73 888
273 73 560
274 73 212
275 73 587
276 73 969
277 73 43
278 72 276
279 72 895
280 72 278
281 72 324
282 72 934
283 72 902
284 72 640
285 72 370
286 72 556
287 72 353
288 72 546
289 72 206
290 72 496
291 71 144
292 71 454
293 71 141
294 71 962
295 71 424
296 71 111
297 71 519
298 71 219
299 71 830
300 71 192
301 70 347
302 70 841
303 70 920
304 70 398
305 70 374
306 70 71
307 70 477
308 70 27
309 69 529
310 69 143
311 69 142
312 69 813
313 69 220
314 69 941
315 69 34
316 69 396
317 68 678
318 68 55
319 68 154
320 68 623
321 67 680
322 67 47
323 67 477
324 67 783
325 67 512
326 67 700
327 67 917
328 67 259
329 67 917
330 67 332
331 67 408
332 67 89
333 66 745
334 66 511
335 66 84
336 66 838
337 66 262
338 66 823
339 66 864
340 66 892
341 66 970
342 66 205
343 66 523
344 66 870
345 66 240
346 66 188
347 66 37
348 66 544
349 66 382
350 66 169
351 65 209
352 65 540
353 65 260
354 65 914
355 65 657
356 65 119
357 65 35
358 65 787
359 65 705
360 65 584
361 64 619
362 64 656
363 64 783
364 64 491
365 64 89
366 64 651
367 64 584
368 64 868
369 64 742
370 63 388
371 63 563
372 63 508
373 63 90
374 63 417
375 63 510
376 63 935
377 63 36
378 63 48
379 63 970
380 63 35
381 63 764
382 62 367
383 62 206
384 62 331
385 62 973
386 62 372
387 62 265
388 62 361
389 61 983
390 61 325
391 61 658
392 61 699
393 61 447
394 61 279
395 61 730
396 61 115
397 61 84
398 60 382
399 60 893
400 60 866
401 60 627
402 60 726
403 60 185
404 60 752
405 60 749
406 60 188
407 59 506
408 59 23
409 59 698
410 59 961
411 59 87
412 59 134
413 59 958
414 59 617
415 59 31
416 59 144
417 59 464
418 59 530
419 59 789
420 59 519
421 59 200
422 59 252
423 59 253
424 59 989
425 58 435
426 58 502
427 58 433
428 58 918
429 58 165
430 58 839
431 58 356
432 58 318
433 58 788
434 58 902
435 58 464
436 57 134
437 57 732
438 57 490
439 57 81
440 57 124
441 57 999
442 57 413
443 57 942
444 57 109
445 57 594
446 56 840
447 56 560
448 56 509
449 56 908
450 56 1000
451 56 778
452 56 769
453 56 260
454 55 851
455 55 308
456 55 928
457 55 962
458 55 247
459 55 114
460 55 829
461 55 328
462 55 284
463 55 950
464 55 629
465 54 990
466 54 465
467 54 162
468 54 494
469 54 204
470 54 125
471 54 295
472 54 664
473 54 55
474 54 881
475 54 298
476 54 568
477 53 331
478 53 931
479 53 143
480 53 163
481 53 755
482 53 523
483 53 859
484 53 1000
485 53 69
486 52 515
487 52 131
488 52 339
489 52 930
490 52 386
491 51 367
492 51 337
493 51 749
494 51 483
495 51 37
496 51 245
497 51 664
498 50 796
499 50 481
500 50 147
501 50 438
502 50 743
503 50 759
504 50 784
505 50 206
506 50 736
507 50 315
508 49 460
509 49 222
510 49 754
511 49 411
512 49 371
513 49 438
514 49 394
515 49 364
516 49 334
517 49 913
518 49 917
519 49 291
520 49 158
521 49 292
522 48 469
523 48 343
524 48 415
525 48 189
526 48 154
527 48 696
528 48 390
529 47 981
530 47 723
531 47 45
532 47 688
533 47 737
534 47 133
535 47 453
536 47 952
537 47 306
538 47 426
539 47 369
540 47 604
541 46 91
542 46 78
543 46 503
544 46 134
545 46 187
546 46 251
547 46 422
548 46 253
549 46 153
550 45 335
551 45 690
552 45 452
553 45 64
554 45 248
555 45 282
556 45 300
557 45 712
558 45 992
559 44 230
560 44 25
561 44 299
562 44 790
563 44 209
564 44 652
565 43 632
566 43 167
567 43 706
568 43 34
569 43 644
570 43 106
571 43 93
572 43 498
573 43 298
574 43 540
575 43 279
576 43 924
577 42 726
578 42 317
579 42 312
580 42 878
581 42 302
582 42 493
583 42 560
584 42 334
585 42 774
586 41 679
587 41 875
588 41 861
589 41 325
590 41 354
591 41 5
592 41 546
593 41 704
594 41 242
595 41 667
596 41 241
597 41 117
598 40 941
599 40 405
600 40 675
601 40 540
602 40 64
603 40 731
604 40 218
605 40 752
606 40 874
607 40 182
608 40 359
609 40 682
610 39 818
611 39 367
612 39 410
613 39 710
614 39 426
615 39 309
616 39 642
617 39 702
618 39 749
619 39 586
620 39 257
621 39 824
622 39 914
623 38 494
624 38 140
625 38 830
626 38 355
627 38 970
628 38 76
629 38 8
630 38 384
631 38 925
632 37 483
633 37 883
634 37 678
635 37 836
636 37 168
637 37 758
638 36 898
639 36 622
640 36 233
641 36 956
642 36 781
643 36 621
644 36 402
645 36 33
646 35 642
647 35 421
648 35 29
649 35 460
650 35 680
651 35 791
652 35 66
653 35 829
654 35 190
655 35 626
656 35 406
657 35 217
658 35 371
659 35 263
660 35 361
661 35 267
662 35 610
663 35 937
664 34 805
665 34 907
666 34 243
667 34 506
668 34 15
669 34 638
670 34 275
671 34 163
672 34 12
673 33 538
674 33 724
675 33 203
676 33 650
677 33 841
678 33 505
679 33 357
680 33 581
681 32 194
682 32 510
683 32 734
684 32 378
685 32 147
686 32 991
687 32 73
688 32 315
689 31 371
690 31 795
691 31 823
692 31 505
693 31 836
694 31 299
695 30 451
696 30 555
697 30 883
698 30 718
699 30 397
700 30 484
701 29 31
702 29 497
703 29 568
704 29 218
705 29 838
706 29 94
707 29 476
708 29 279
709 29 49
710 29 322
711 28 290
712 28 322
713 28 778
714 28 920
715 28 393
716 28 213
717 28 635
718 28 496
719 27 631
720 27 994
721 27 212
722 27 270
723 27 195
724 27 326
725 27 959
726 27 945
727 27 540
728 26 376
729 26 102
730 26 302
731 26 21
732 26 344
733 26 818
734 26 610
735 26 330
736 26 397
737 25 772
738 25 34
739 25 853
740 25 843
741 25 991
742 25 165
743 25 97
744 25 258
745 25 244
746 25 236
747 25 424
748 25 222
749 25 325
750 25 377
