results/OOEBPP/BPP_750_125_0.2_0.8_2.txt.ins.log
222,221.539,19.8639,OPT,7885,0,0,AI,0,0.0585586,2.98198,0.438521,19.0525,0,2,0,52,52
